!File created by the GAMESS Input Deck Generator Plugin for Avogadro
 $BASIS GBASIS=STO NGAUSS=3 $END
 $CONTRL SCFTYP=RHF RUNTYP=SADPOINT $END
 $STATPT hssend=.t. OPTTOL=0.0005 NSTEP=50 $END
 $STATPT HESS=calc ihrep=5 $END
 $FORCE nvib=2 $END
 $ZMAT DLC=.t. auto=.t. nonvdw(1)=2,12,3,13,17,2,2,3 $END
!$ZMAT IFZMAT(1)=1,2,12,1,3,13 fvalue(1)=2.00,2.00 $END

 $DATA 
Title
C1
C     6.0    -1.16662204    -0.65688026     0.33732870
C     6.0    -1.73197389     0.61620373    -0.31169492
C     6.0    -0.72350264     1.48462808    -0.60838622
C     6.0     0.64799678     0.89853424    -0.26594415
C     6.0     0.31235197    -0.30978444     0.64674336
H     1.0    -1.23731327    -1.46784353    -0.38772365
H     1.0    -1.72257733    -0.95332968     1.22334635
H     1.0     1.30482709     1.61896682     0.21457419
H     1.0     1.12233889     0.57337892    -1.19201744
H     1.0     0.41603813    -0.02436020     1.68953836
H     1.0     0.97297466    -1.15200567     0.46064693
B     5.0    -1.60612249     2.14742517     0.96874344
H     1.0    -0.64468533     2.78058052     0.91289461
H     1.0    -1.64533341     1.46339703     1.89685762
H     1.0    -2.56222892     2.71843839     0.67009097
H     1.0    -0.82508618     2.31663775    -1.29507017
C     6.0    -3.14450407     0.61853600    -0.88446844
H     1.0    -3.22735071    -0.18029249    -1.61934185
H     1.0    -3.36811543     1.56442642    -1.36629200
H     1.0    -3.87760258     0.43924332    -0.10300782
 $END
