!File created by the GAMESS Input Deck Generator Plugin for Avogadro
 $BASIS GBASIS=STO NGAUSS=3 $END
 $CONTRL SCFTYP=RHF RUNTYP=OPTIMIZE NZVAR=1 mult=1  ICHARG=0 $END
 $STATPT hssend=.t. OPTTOL=0.0005 NSTEP=50 $END
 $STATPT HESS=calc ihrep=5 $END
 $FORCE nvib=2 $END
 $ZMAT DLC=.t. auto=.t. nonvdw(1)=6,16,9,16 $END
 $ZMAT IFZMAT(1)=1,6,16,1,9,16 fvalue(1)=3.97,4.01 $END

 $DATA 
Title
C1
C     6.0    -1.89314     1.98358     0.02283
C     6.0    -3.04290     0.97590     0.17338
C     6.0    -0.63524     1.12069    -0.15928
H     1.0    -1.86127     2.61376     0.93836
H     1.0    -1.99919     2.63608    -0.87123
C     6.0    -1.05926    -0.27147     0.27995
H     1.0     0.28737     1.52936     0.30389
H     1.0    -0.44727     1.03991    -1.25553
C     6.0    -2.46238    -0.34233    -0.31256
H     1.0    -4.00744     1.29127    -0.27710
H     1.0    -3.21781     0.83670     1.26592
H     1.0    -2.39999    -0.33832    -1.42499
H     1.0    -3.04844    -1.22829     0.01179
H     1.0    -1.11950    -0.31298     1.39174
H     1.0    -0.37572    -1.07214    -0.07361
Br    35.0    -1.62485    -4.21713     0.02834
H     1.0    -0.17086    -3.74496     0.04417
 $END
