!File created by the GAMESS Input Deck Generator Plugin for Avogadro
 $BASIS GBASIS=STO NGAUSS=3 $END
 $CONTRL SCFTYP=RHF RUNTYP=OPTIMIZE NZVAR=1 mult=1  ICHARG=-1 $END
 $STATPT hssend=.t. OPTTOL=0.0005 NSTEP=50 $END
 $STATPT HESS=calc ihrep=5 $END
 $FORCE nvib=2 $END
 $ZMAT DLC=.t. auto=.t. nonvdw(1)=9,12,3,12 $END
 $ZMAT IFZMAT(1)=1,9,12,1,3,12 fvalue(1)=1.99,1.97 $END

 $DATA 
Title
C1
C     6.0    -1.91078     3.22485    -0.17110
C     6.0    -0.70193     2.37222     0.15153
C     6.0    -1.16321     0.98595    -0.29052
H     1.0    -0.47890     2.36364     1.24141
H     1.0     0.18350     2.73913    -0.40949
C     6.0    -3.04537     2.33403     0.26770
H     1.0    -1.97552     3.33833    -1.27839
H     1.0    -1.90093     4.23473     0.29085
C     6.0    -2.62892     0.94895    -0.24206
H     1.0    -4.03523     2.66545    -0.11072
H     1.0    -3.07918     2.32796     1.38073
Br    35.0    -1.83658    -0.14614     1.19633
H     1.0    -0.46057     0.26869    -0.76385
H     1.0    -2.91166     0.66579    -1.27815
 $END
