!File created by the GAMESS Input Deck Generator Plugin for Avogadro
 $BASIS GBASIS=STO NGAUSS=3 $END
 $CONTRL SCFTYP=RHF RUNTYP=IRC $END
 $STATPT HESS=READ ihrep=5 $END
 $irc npoint=100 saddle=.t. tsengy=.t. forwrd=.f. opttol=0.0005 stride=0.1 $end  $FORCE nvib=2 $END
 
 $DATA 
Title
C1
C     6.0     2.08227444    -1.16107225    -1.87052178
C     6.0     0.84151685    -1.23566854    -1.21336114
C     6.0     0.56351393    -0.32213175    -0.18300547
C     6.0     1.92173910    -0.56043291     1.17038381
C     6.0     2.78667784    -1.55988324     0.69283348
C     6.0     3.45312667    -1.27383375    -0.51385242
C     6.0     4.03248787     0.12113438    -0.59379905
C     6.0     3.61009645     1.09567618     0.18432453
C     6.0     2.50346684     0.86504096     1.18869996
O     8.0     2.09883523     1.73224294     1.95012224
H     1.0     2.32100511    -1.96068299    -2.56463599
H     1.0     2.38053036    -0.19068792    -2.24986148
H     1.0     0.38181117    -2.21450734    -1.13920081
H     1.0     0.75900656     0.72326982    -0.39286402
H     1.0    -0.35839403    -0.46015379     0.37226164
H     1.0     1.34357142    -0.78583640     2.06233120
H     1.0     2.59449768    -2.59304023     0.95515484
H     1.0     4.10607147    -2.04222798    -0.91767365
H     1.0     4.81738281     0.28437096    -1.32434464
H     1.0     4.04134274     2.08756876     0.15309787
 $END

 $HESS
ENERGY IS     -416.0940647114 E(NUC) IS      511.4290929312
 1  1 4.04425859E-01 7.59492859E-02-3.97702451E-01-2.57987370E-01-1.07003114E-01
 1  2 7.84130671E-02 5.77009918E-02 5.80419553E-02 1.65767042E-01-1.37510875E-01
 1  3 7.68646302E-02-4.82937536E-02 9.04803897E-02-3.87253669E-02-1.49243071E-01
 1  4 4.99588289E-02-1.50986581E-02 2.27994948E-01-2.72661816E-02-2.08173459E-02
 1  5-2.52485989E-02-6.70951006E-03 8.15633073E-03 2.41480041E-03 7.84069889E-03
 1  6-3.60768494E-03 1.02889229E-02-1.17559282E-03 3.37482435E-03-1.45541577E-03
 1  7-7.62921659E-02 5.67603504E-02 7.86735904E-02-6.80241716E-02-9.95160249E-02
 1  8 7.95852172E-02-9.54238688E-03 8.32431198E-03 7.48937937E-03-1.55159259E-02
 1  9 1.11953357E-03-1.30573158E-02-1.63809844E-03 1.40540665E-03-2.67307761E-03
 1 10 7.03839009E-03 4.72370316E-04 3.87989292E-03-3.12497727E-04-2.19621266E-03
 1 11 1.41201689E-03-1.92892692E-02-2.47300270E-03-2.14115293E-02 1.16545742E-03
 1 12-2.89059205E-04 9.68427532E-04 2.64966951E-03-7.44143135E-04 2.20264514E-03
 2  1 7.59492859E-02 8.80041507E-01 7.95243390E-02-3.24869989E-02-1.54518279E-01
 2  2-5.22260572E-03 3.23294596E-02 9.56798359E-03-1.65141171E-02 7.49147801E-04
 2  3-9.76640504E-05-2.86145107E-03 1.59443624E-03 1.20730395E-03 8.14618993E-03
 2  4 7.02410618E-04-4.53099437E-02-5.33834749E-03-1.11144870E-02-2.69009954E-04
 2  5-1.08669639E-02 1.91725673E-04-1.35829569E-03-9.40499257E-04-1.50536209E-03
 2  6-1.00026417E-03 6.24367316E-04 6.75846935E-04-3.93061853E-05-1.92554097E-04
 2  7 5.32556287E-02-2.97338787E-01-1.89859260E-01-9.16647546E-02-3.97473323E-01
 2  8 1.20878994E-01-3.65046893E-02 6.46186922E-03 1.94977863E-02 1.17594593E-03
 2  9 1.98902798E-03 2.36164466E-03-2.15313456E-03-2.56582388E-03-7.30548700E-03
 2 10-5.14778845E-04 2.07828387E-05-3.37487869E-04-6.08782205E-04 4.41853596E-05
 2 11-7.15717823E-04 9.04542885E-03 5.45628298E-04 8.30309473E-03 2.25642923E-04
 2 12-2.42720799E-04 5.35734045E-04 6.58008122E-04 3.35136129E-04 2.82319124E-04
 3  1-3.97702451E-01 7.95243390E-02 6.02248229E-01 2.34308052E-01-2.62871896E-03
 3  2-2.22940138E-01 4.47079523E-02 1.27682689E-02 1.63424833E-02-3.04219822E-02
 3  3 1.98722060E-02-1.30249009E-02 2.61163555E-02-1.51918115E-02-6.55454241E-02
 3  4 2.54016846E-02-5.75648530E-03 3.51638586E-02-1.46480589E-02-1.49758645E-02
 3  5-1.25832921E-02-4.20351935E-03 4.58573779E-03 2.06831529E-03 2.46056751E-03
 3  6-1.84988329E-04-5.15134606E-04-9.85886094E-04 1.75601560E-03 8.02595071E-04
 3  7 6.14640175E-02-1.83552027E-01-2.27833535E-01 5.23708900E-02 1.12732598E-01
 3  8-1.10569826E-01 5.49531157E-03-5.60692387E-03 2.19272095E-03-7.08407724E-03
 3  9 2.05237882E-05-4.79648645E-03 2.64391134E-03-5.28166723E-03-1.98916068E-03
 3 10 2.33799631E-04 6.88698687E-04 1.79543976E-03-6.12410632E-04 1.46793654E-03
 3 11-6.37208520E-05-1.10953589E-03-7.58199326E-04-2.56830001E-03 7.28116029E-04
 3 12 8.63196115E-04 5.61617755E-04 8.35478041E-04-3.42481716E-04 1.25703038E-03
 4  1-2.57987370E-01-3.24869989E-02 2.34308052E-01 6.28382024E-01 1.73821662E-01
 4  2-2.25971459E-01-1.66884497E-01 2.50960141E-04 4.51508502E-03 7.24079115E-02
 4  3-3.67149869E-02 3.11683873E-02-7.92494739E-02 2.39351457E-02 5.11126317E-02
 4  4-6.65077327E-02 1.33020728E-02-1.37809294E-01 8.39995414E-03 5.42538561E-03
 4  5 6.91784390E-03 2.80693045E-03-3.03718614E-03-1.53125206E-04-3.53408610E-03
 4  6-6.38943507E-04-5.96490816E-03-3.64953089E-05-1.80398075E-03 6.67334660E-04
 4  7-4.14734129E-03-3.99714087E-03-8.36092254E-03-2.13298494E-02 4.12905820E-03
 4  8-1.50929167E-02-1.34624684E-01-1.58870958E-01 3.05469014E-02 1.50237867E-02
 4  9-6.86390469E-03-2.47836985E-03 5.55622877E-03 2.54369575E-02 3.25561432E-02
 4 10-3.05656586E-03-5.52196042E-04-2.86903613E-03 1.27258204E-03-2.61832227E-03
 4 11 1.99630876E-03 5.26017054E-03 6.80265095E-04 6.12780546E-03-4.93591751E-04
 4 12 2.08047578E-04-3.10552560E-04-1.25529554E-03 3.95395167E-04-9.09631177E-04
 5  1-1.07003114E-01-1.54518279E-01-2.62871896E-03 1.73821662E-01 8.29007204E-01
 5  2 1.34935069E-01 7.30727956E-02-3.02977776E-01-1.34077186E-01-6.13768840E-02
 5  3 2.92921875E-02-2.79672374E-02 4.74872259E-02-1.04381001E-02-2.62275542E-02
 5  4 2.59708491E-02-5.43662191E-03 5.25213645E-02-3.96984467E-03-3.65172880E-03
 5  5-2.21231215E-03-1.69282988E-03 2.06087882E-03-2.35211715E-04 3.66497565E-03
 5  6-5.52668759E-04 4.74059630E-03-5.25421831E-04 1.22443116E-03-8.86932293E-04
 5  7 3.33663901E-02 7.52946749E-03-9.59331033E-03-3.43075203E-02 7.37463603E-03
 5  8 2.11691243E-02-1.42870224E-01-3.93002563E-01 2.71431784E-02-1.67615175E-03
 5  9-1.56487639E-02-4.34557715E-02-6.49397261E-03 1.00331644E-02 5.42680951E-03
 5 10 4.04225555E-03 1.15276936E-04 2.40025599E-03-7.23703301E-04-1.97694427E-04
 5 11-4.51039396E-04-1.64776113E-03 8.98890850E-05-1.11663855E-03 2.84050873E-04
 5 12-1.06877860E-04 5.90610568E-05 5.76513048E-04-1.96812139E-04 4.57744570E-04
 6  1 7.84130671E-02-5.22260572E-03-2.22940138E-01-2.25971459E-01 1.34935069E-01
 6  2 5.14503502E-01 1.53624873E-01-1.44023858E-01-1.64647949E-01-1.29507408E-01
 6  3 5.15064955E-02-7.08181636E-02 4.10867019E-02-4.09507787E-02-9.31519498E-02
 6  4 3.56063465E-02-1.04276905E-02 1.03856875E-01-6.69256194E-03-3.16928204E-03
 6  5-4.86618305E-03-2.73798694E-03 1.89689525E-03-9.42123020E-05 6.85518434E-03
 6  6 3.14887849E-03 8.54922416E-03-3.61663697E-04 1.36714313E-04-1.84849077E-03
 6  7 3.00528652E-02 4.73089122E-03-1.71711328E-03 2.23856169E-02-1.27062793E-03
 6  8 1.16103679E-02 2.39367802E-02 1.21408371E-02-6.49075407E-02-1.87648799E-02
 6  9 1.10070616E-02-1.58486339E-03-1.04329886E-02-1.02133196E-02-1.42588169E-02
 6 10 5.14854476E-03-1.53381850E-04 3.53835484E-03 1.79275430E-03-2.08703945E-03
 6 11 2.84552864E-03-5.55378264E-03-9.49640960E-04-5.06578702E-03 2.32366131E-04
 6 12-7.79679570E-04 3.74256139E-04 8.85186247E-04-2.56950732E-04 6.25581123E-04
 7  1 5.77009918E-02 3.23294596E-02 4.47079523E-02-1.66884497E-01 7.30727956E-02
 7  2 1.53624873E-01 5.96396446E-01 3.69176558E-02-4.09032303E-01 5.09076626E-02
 7  3-4.30009850E-02 4.04316219E-02-7.29292164E-02 3.72186659E-02 4.38648970E-02
 7  4-1.85335278E-02 1.23188643E-02-6.13536872E-02 4.22467308E-03 1.33662545E-03
 7  5 1.64681789E-03 2.55882784E-03-5.30820966E-04 1.93648539E-03-1.87189539E-02
 7  6-1.45773512E-02-2.19857452E-02-3.15482591E-04 3.92058861E-03 4.68522127E-03
 7  7-6.58391695E-03-1.27578563E-03 4.23494371E-03-6.77801996E-03-5.45119132E-04
 7  8-8.28290415E-03 7.01318744E-03-1.16867192E-02-1.20361560E-02-7.62974817E-02
 7  9-7.75598782E-02 3.87984413E-02-3.52601873E-01-4.93817438E-02 1.78877176E-01
 7 10-9.58160546E-04 1.15564156E-04 1.33515738E-03-6.21958974E-04 3.48570051E-04
 7 11-1.56368182E-03 3.03055240E-03 2.55342796E-04 1.39631296E-03-4.32696885E-04
 7 12 4.11962131E-04-4.11205518E-04-1.75150957E-04 3.13525114E-04-8.76668096E-04
 8  1 5.80419553E-02 9.56798359E-03 1.27682689E-02 2.50960141E-04-3.02977776E-01
 8  2-1.44023858E-01 3.69176558E-02 8.82813903E-01 6.15837803E-02 4.13132298E-02
 8  3-6.00765413E-02 2.72668105E-02-1.79958774E-02 1.33470176E-02 2.54152774E-02
 8  4-1.54570159E-02 4.13921646E-03-4.71123782E-02 3.48863617E-03 2.98834458E-03
 8  5 4.51515617E-03 3.44981626E-03-1.34107236E-03 1.02368981E-03-1.06654463E-02
 8  6-1.53377715E-04-1.61860317E-02-4.75105437E-04-2.57772450E-03 1.62564275E-03
 8  7-4.72719282E-03 1.45132458E-03-3.48300601E-03-1.00013424E-03 1.16657459E-03
 8  8-2.94076156E-03 1.17980320E-02-1.47540828E-02-3.58097780E-02-5.87096965E-02
 8  9-4.40884439E-01 8.40672302E-02-4.64749240E-02-9.17365316E-02 2.76566050E-02
 8 10 1.23584406E-03-1.75790761E-04 1.57616819E-03-8.17458564E-04-1.58877328E-03
 8 11 2.07522797E-04 1.23221578E-03 4.08211652E-04 2.69842948E-03-3.01138847E-04
 8 12 1.32668571E-04-1.83853839E-04-1.10302014E-03 2.50756207E-04-6.66816569E-04
 9  1 1.65767042E-01-1.65141171E-02 1.63424833E-02 4.51508502E-03-1.34077186E-01
 9  2-1.64647949E-01-4.09032303E-01 6.15837803E-02 4.12291139E-01 1.88075182E-01
 9  3-7.77575239E-02 4.09728465E-02-1.22403028E-01 6.66470146E-02 8.97054032E-02
 9  4-3.44737885E-02 1.78174650E-02-1.47209752E-01 8.70508933E-03-7.09107893E-04
 9  5 7.53223240E-03 2.97748296E-03-2.25933970E-03 1.51548354E-03-1.91235930E-02
 9  6-1.34004440E-02-2.25705830E-02-1.55686746E-03 1.67657572E-03 4.67944956E-03
 9  7 2.36293357E-03 6.33253328E-04-5.65593401E-04-1.53723616E-02-7.26457059E-04
 9  8-1.37544065E-02-4.22072443E-04 9.26962568E-03 4.56312460E-03 5.14698572E-02
 9  9 6.71783916E-02-6.27428785E-02 1.96384677E-01 2.00358072E-02-1.55898412E-01
 9 10-2.17510924E-02 4.75524265E-04-1.55437927E-02-2.41241972E-04-2.44549084E-03
 9 11-9.59453411E-05 6.22274227E-03 1.69696018E-03 7.23116822E-03-8.92198710E-04
 9 12 5.34301808E-04-7.23677985E-04-1.20762087E-03 3.42531920E-04-1.08655652E-03
10  1-1.37510875E-01 7.49147801E-04-3.04219822E-02 7.24079115E-02-6.13768840E-02
10  2-1.29507408E-01 5.09076626E-02 4.13132298E-02 1.88075182E-01 4.20798556E-01
10  3 2.50348475E-02-4.19134402E-01-1.31710734E-01 1.10520558E-01 3.45361016E-02
10  4 7.61095916E-03-3.80203205E-03 1.44207192E-01-7.79095984E-03 7.82472488E-03
10  5-1.03886182E-02-2.60101404E-03-2.69418281E-02 1.40831176E-03-1.21835711E-01
10  6-5.73724774E-02 4.87921016E-02 2.46210144E-02 1.30153049E-02-2.25101416E-03
10  7 3.39039016E-03-1.91968174E-03 3.35010293E-03 1.02593127E-02 8.02881491E-04
10  8 1.07142154E-02 9.14013912E-04 1.38819376E-03 1.07398849E-03-1.75681720E-02
10  9 2.13185278E-03-1.52366038E-02-1.58835942E-02 7.37571051E-03-2.18963509E-02
10 10-1.63332530E-01-4.62407076E-02 1.94217284E-01 1.06102453E-02-1.08114301E-02
10 11-2.29070106E-03-2.51996949E-03-1.85212999E-03 5.30072030E-04 8.61310457E-04
10 12 5.04106319E-05-2.77026694E-04-1.62928752E-03 1.08625973E-04 4.50380880E-03
11  1 7.68646302E-02-9.76640504E-05 1.98722060E-02-3.67149869E-02 2.92921875E-02
11  2 5.15064955E-02-4.30009850E-02-6.00765413E-02-7.77575239E-02 2.50348475E-02
11  3 7.14279132E-01 7.73559819E-02 8.94191708E-02-3.12460230E-01-2.84392282E-02
11  4-1.97642456E-02 3.00109652E-02-8.28820625E-02 4.51898880E-03-5.70900337E-03
11  5 1.08345277E-03-8.33455838E-03-4.40638952E-03-1.74377648E-04-8.39677591E-02
11  6-2.19925748E-01-3.59621556E-03-5.42413340E-03-5.61394710E-02-2.25864553E-02
11  7-2.66987065E-03 1.36224545E-03-1.59394464E-03-6.96881643E-03-5.74793119E-04
11  8-6.43061382E-03-8.65632252E-04-1.32836732E-03 1.40530009E-04 2.01625122E-02
11  9-2.72958359E-03 1.67904662E-02 1.02380088E-03-6.76468059E-04 2.35736147E-03
11 10-4.73634534E-02-9.70379086E-02 6.22019424E-02 3.19509571E-02-1.44813612E-02
11 11-1.60011160E-02 3.87450068E-03 1.48146214E-04 7.31831728E-03 7.72654054E-04
11 12 2.57898599E-04 3.77270958E-05 1.45285267E-03 2.94292440E-04 7.95772140E-04
12  1-4.82937536E-02-2.86145107E-03-1.30249009E-02 3.11683873E-02-2.79672374E-02
12  2-7.08181636E-02 4.04316219E-02 2.72668105E-02 4.09728465E-02-4.19134402E-01
12  3 7.73559819E-02 6.35594710E-01 1.56351453E-01-1.18561537E-01-1.87906432E-01
12  4 3.34043686E-02-3.95984911E-02 2.85333743E-02-6.86243756E-03 7.07315607E-03
12  5-3.19316857E-03 1.88221373E-02 2.41163700E-02 6.00123248E-03 3.05504009E-02
12  6 1.78574208E-02-1.01674238E-01-4.73858618E-03-4.59881682E-02 3.44454927E-03
12  7-2.61157222E-04 2.11440641E-04 1.80390803E-03 1.98338271E-03-4.56842964E-04
12  8 3.55308754E-03-1.25361980E-03-4.76361229E-04 3.06331796E-04-1.59285050E-02
12  9 1.91438006E-03-1.31893960E-02 1.38476750E-03 1.42750522E-04-7.68324386E-04
12 10 1.76236598E-01 6.91992081E-02-3.30461707E-01-3.01631804E-03 9.67235502E-03
12 11 8.58676210E-03 4.30250139E-03 2.72735130E-03-5.61236061E-03-9.41484072E-04
12 12-4.66453688E-04-2.81549683E-04 5.79424908E-03-1.16055406E-03-1.86460361E-03
13  1 9.04803897E-02 1.59443624E-03 2.61163555E-02-7.92494739E-02 4.74872259E-02
13  2 4.10867019E-02-7.29292164E-02-1.79958774E-02-1.22403028E-01-1.31710734E-01
13  3 8.94191708E-02 1.56351453E-01 4.80841551E-01-2.56730139E-02-2.57249387E-01
13  4-2.10607687E-01-1.19623402E-02 9.63400566E-02 3.54484594E-04-2.61445810E-02
13  5 2.07549930E-02-3.13158103E-03 2.63347833E-03 4.69910092E-03 9.60325447E-03
13  6 3.55236940E-03-2.00668850E-02-1.92746273E-03-1.00767054E-02-4.44372395E-04
13  7-2.18100717E-03 1.29092796E-03-3.02722357E-03-7.21886003E-03 1.94675440E-04
13  8-8.80024067E-03 3.06001532E-03 1.54738591E-03 1.68053135E-03 8.76429604E-03
13  9-9.69204188E-04 7.48928712E-03 3.26418410E-03-1.36076775E-03 4.47447484E-03
13 10-1.31639955E-02 1.59688092E-02-6.37309090E-03-7.41314086E-02-6.00845320E-02
13 11 3.06534639E-02 2.33562797E-04-8.90885899E-03 2.80663420E-02 5.00249411E-04
13 12-6.54643631E-04 1.96093193E-04-8.48567766E-04 1.42807232E-04 4.51852714E-04
14  1-3.87253669E-02 1.20730395E-03-1.51918115E-02 2.39351457E-02-1.04381001E-02
14  2-4.09507787E-02 3.72186659E-02 1.33470176E-02 6.66470146E-02 1.10520558E-01
14  3-3.12460230E-01-1.18561537E-01-2.56730139E-02 9.41916633E-01-9.47281657E-02
14  4-3.27560087E-02-1.73945083E-01 1.14974640E-01-2.40371744E-02-1.12235753E-02
14  5 3.66538026E-02-5.55966853E-04 3.99152928E-03 7.33482561E-04 3.16537011E-02
14  6-3.72412740E-02-3.70365506E-03-5.02920550E-03-1.59822784E-03-1.57961742E-04
14  7 1.58353440E-04 1.52295384E-04 8.16130557E-04 1.77559974E-03-5.04996701E-04
14  8 2.73272005E-03 1.64158445E-04-8.59858533E-04 7.85313726E-04-5.83608327E-03
14  9 5.70803060E-04-4.86619948E-03-2.14276246E-03 1.24323263E-03-3.67461355E-03
14 10-6.16218226E-03 1.28770888E-02 9.65061266E-03-7.43745268E-02-4.34229206E-01
14 11 8.20476425E-02 1.05987710E-02 1.25621984E-02-3.22442208E-02-1.78209712E-03
14 12-6.46639146E-03-6.04151378E-04 1.04815537E-03 1.09869394E-03-3.56452162E-04
15  1-1.49243071E-01 8.14618993E-03-6.55454241E-02 5.11126317E-02-2.62275542E-02
15  2-9.31519498E-02 4.38648970E-02 2.54152774E-02 8.97054032E-02 3.45361016E-02
15  3-2.84392282E-02-1.87906432E-01-2.57249387E-01-9.47281657E-02 5.79553378E-01
15  4 2.25659610E-01 4.17967338E-02-2.34188593E-01-1.02176438E-02 1.47157166E-02
15  5-1.03975500E-02 8.06076948E-04-3.17913188E-03-1.31237761E-03-1.61447657E-03
15  6-1.71961720E-02 1.38852197E-02 1.77972495E-04 6.96175935E-03 1.28844890E-03
15  7 4.34561585E-03-1.85563144E-03 3.72306483E-03 1.03460751E-02-1.81571767E-04
15  8 1.06720398E-02 2.91919101E-03 1.61136714E-03 2.13299804E-03-8.46214391E-03
15  9 1.80282586E-03-6.15302880E-03-3.20697872E-03 1.89024893E-03-3.45983504E-03
15 10 2.74319141E-02-2.92729766E-02 1.06473957E-03 3.76380090E-02 9.56918909E-02
15 11-8.70850098E-02-9.64582899E-03 6.42189717E-03-1.30804520E-02-3.11775798E-04
15 12-3.07559566E-03 5.09986755E-04 1.11148448E-03-2.99746713E-04-2.52134709E-04
16  1 4.99588289E-02 7.02410618E-04 2.54016846E-02-6.65077327E-02 2.59708491E-02
16  2 3.56063465E-02-1.85335278E-02-1.54570159E-02-3.44737885E-02 7.61095916E-03
16  3-1.97642456E-02 3.34043686E-02-2.10607687E-01-3.27560087E-02 2.25659610E-01
16  4 5.67168818E-01-6.82417972E-02-4.09947954E-01-1.36263792E-01-4.20276421E-02
16  5 3.81387671E-02 2.48699590E-02 6.90202683E-04-1.02388704E-02-1.07678819E-02
16  6 7.49220304E-03-8.03670871E-03 2.16891995E-03-3.89815176E-03-9.61089712E-05
16  7-2.93482555E-03 1.77097584E-03-1.05869489E-03-8.41946169E-03 6.31517378E-05
16  8-9.66279010E-03-9.78912272E-04-1.09199779E-03-1.43315059E-03 2.86459653E-03
16  9-1.36113252E-03 1.14965738E-03 1.34496509E-03-9.46155786E-04-7.36969700E-04
16 10 4.88009031E-04 4.60221486E-03 4.44145585E-03 2.55556143E-03 4.95202423E-03
16 11 8.41727903E-03-2.05578678E-01 1.64890658E-01 9.69155264E-02-2.83583270E-03
16 12-2.55301953E-02-2.77523308E-03 4.39909570E-03-5.91340588E-05 9.32451461E-03
17  1-1.50986581E-02-4.53099437E-02-5.75648530E-03 1.33020728E-02-5.43662191E-03
17  2-1.04276905E-02 1.23188643E-02 4.13921646E-03 1.78174650E-02-3.80203205E-03
17  3 3.00109652E-02-3.95984911E-02-1.19623402E-02-1.73945083E-01 4.17967338E-02
17  4-6.82417972E-02 7.87741816E-01 5.81843194E-02-8.40134345E-02-2.81706629E-01
17  5 3.06676735E-03-6.50083519E-03-4.15057823E-02-6.13632605E-03 1.56903691E-03
17  6 3.45873795E-03 4.72559730E-03-9.01994090E-04-1.20623125E-03 4.10616067E-04
17  7-7.79632637E-03 2.50547295E-03-8.04841226E-03 1.30638413E-02-2.35170215E-05
17  8 1.39956166E-02 2.19397572E-04-4.48604832E-04 2.77514618E-04-1.08830104E-03
17  9 2.83185375E-04-1.22192606E-03-7.36152249E-04-3.13657519E-05-4.97220110E-04
17 10 6.04144973E-03-5.87064962E-03 5.54381870E-04-1.75420902E-02 2.33794524E-03
17 11 3.66697223E-02 1.69313729E-01-2.73763387E-01-9.69537328E-02 4.07095391E-03
17 12-1.28862518E-03-4.35912044E-03-2.21563815E-03 5.88388546E-05-4.49891484E-03
18  1 2.27994948E-01-5.33834749E-03 3.51638586E-02-1.37809294E-01 5.25213645E-02
18  2 1.03856875E-01-6.13536872E-02-4.71123782E-02-1.47209752E-01 1.44207192E-01
18  3-8.28820625E-02 2.85333743E-02 9.63400566E-02 1.14974640E-01-2.34188593E-01
18  4-4.09947954E-01 5.81843194E-02 4.35694749E-01 5.43697741E-02 1.11593517E-02
18  5-8.32797329E-02-7.24942761E-03-2.55542375E-02 4.11550866E-03-1.37407761E-02
18  6 1.12260546E-02-1.49467056E-02 2.19106834E-03-4.84600760E-03 1.47514661E-03
18  7-1.53975922E-02 6.80495569E-03-1.38792990E-02-2.64430015E-02 1.64047873E-03
18  8-2.82674313E-02 8.83971715E-04 2.17559341E-03-1.29164044E-03 1.34165183E-02
18  9-4.45118876E-04 1.01501445E-02 3.92901236E-03-2.54468003E-03 6.53690723E-03
18 10-2.51535965E-03-1.62786872E-03-1.43778771E-03 3.95205657E-04-7.24751803E-03
18 11-1.99051430E-03 1.16650409E-01-1.02683350E-01-1.06270086E-01 8.59246553E-03
18 12 2.54981005E-02 5.23183350E-03 5.49138736E-03-3.90246779E-03 1.99754093E-03
19  1-2.72661816E-02-1.11144870E-02-1.46480589E-02 8.39995414E-03-3.96984467E-03
19  2-6.69256194E-03 4.22467308E-03 3.48863617E-03 8.70508933E-03-7.79095984E-03
19  3 4.51898880E-03-6.86243756E-03 3.54484594E-04-2.40371744E-02-1.02176438E-02
19  4-1.36263792E-01-8.40134345E-02 5.43697741E-02 6.00815228E-01-4.28085534E-03
19  5-4.03675645E-01-1.87394393E-01 1.38064046E-01 1.63427209E-01-2.15635984E-03
19  6 3.14290410E-02 2.22410648E-02-5.52740536E-03-4.68442338E-03 3.73393060E-03
19  7-1.32629395E-04-2.70432030E-04-4.18232997E-04-8.09572413E-04-3.10682787E-03
19  8-1.12606307E-03 4.13408004E-04-1.29462162E-04 3.32799412E-04-1.11163688E-03
19  9 1.50282348E-04-3.48548308E-04-1.09066642E-04 3.81494900E-05-2.63137354E-04
19 10 9.39298029E-04-2.64737930E-04-4.43830129E-05 4.24128590E-03 2.27696313E-04
19 11 5.26634282E-03 1.20226809E-02 2.41955503E-02-5.08196535E-03-2.74488902E-01
19 12-5.02045832E-02 2.01239496E-01 1.16394314E-02-1.60366263E-02-9.93722610E-03
20  1-2.08173459E-02-2.69009954E-04-1.49758645E-02 5.42538561E-03-3.65172880E-03
20  2-3.16928204E-03 1.33662545E-03 2.98834458E-03-7.09107893E-04 7.82472488E-03
20  3-5.70900337E-03 7.07315607E-03-2.61445810E-02-1.12235753E-02 1.47157166E-02
20  4-4.20276421E-02-2.81706629E-01 1.11593517E-02-4.28085534E-03 8.90446298E-01
20  5 2.57982098E-01 1.10719906E-01-4.89476233E-01-2.73309227E-01 2.34727249E-02
20  6 1.79120878E-02-2.14372085E-02-1.02177269E-02 4.48999439E-03 1.06124066E-02
20  7 1.05414842E-03-6.67289279E-04 5.33048333E-04 7.98593444E-04 1.11415407E-04
20  8 1.65683851E-03 3.12864242E-04-2.17525274E-05 2.03317370E-04 2.11407302E-04
20  9 2.69110561E-04 4.93377697E-04 4.57547381E-04-5.53079488E-04 1.25625239E-03
20 10-6.70466545E-04-1.54976948E-03-6.87214610E-04-1.46426780E-03-2.48890500E-04
20 11-2.73099734E-03-1.99908282E-02-1.92286189E-02 2.55829869E-03-4.56576968E-02
20 12-8.49433036E-02 3.30906361E-02 1.96573636E-02-1.69687599E-02-2.43147315E-02
21  1-2.52485989E-02-1.08669639E-02-1.25832921E-02 6.91784390E-03-2.21231215E-03
21  2-4.86618305E-03 1.64681789E-03 4.51515617E-03 7.53223240E-03-1.03886182E-02
21  3 1.08345277E-03-3.19316857E-03 2.07549930E-02 3.66538026E-02-1.03975500E-02
21  4 3.81387671E-02 3.06676735E-03-8.32797329E-02-4.03675645E-01 2.57982098E-01
21  5 7.09175329E-01 1.52967388E-01-2.93377702E-01-3.35687553E-01 2.24759633E-02
21  6-2.87159347E-02-2.48330467E-02 1.08707045E-03 7.17014912E-03 2.06585616E-03
21  7-4.71361376E-04 6.07344048E-05-5.56571157E-04-4.23041068E-03-3.73192438E-03
21  8-7.60913871E-04 2.49932832E-04-6.23879307E-04 5.95364356E-04-1.50681980E-03
21  9-4.26238132E-04-7.60867485E-04-1.96408115E-04 2.16466530E-04-6.42456513E-04
21 10-1.00637398E-03-2.45666858E-04-1.62346401E-04 6.38259874E-03 9.77556722E-04
21 11-3.84492511E-03-9.05213784E-03-1.40880633E-02 1.93984830E-03 2.01430430E-01
21 12 3.72206656E-02-2.47397659E-01 3.72355451E-03 5.34181563E-03 7.65790353E-03
22  1-6.70951006E-03 1.91725673E-04-4.20351935E-03 2.80693045E-03-1.69282988E-03
22  2-2.73798694E-03 2.55882784E-03 3.44981626E-03 2.97748296E-03-2.60101404E-03
22  3-8.33455838E-03 1.88221373E-02-3.13158103E-03-5.55966853E-04 8.06076948E-04
22  4 2.48699590E-02-6.50083519E-03-7.24942761E-03-1.87394393E-01 1.10719906E-01
22  5 1.52967388E-01 5.00997375E-01 6.65344701E-02-3.16540289E-01-1.95019077E-01
22  6-4.71598218E-02 8.11821359E-02-8.64442078E-03 1.48311091E-02 3.69848394E-02
22  7 2.78716711E-04-2.47135480E-04 2.19765778E-04-5.36193340E-04-5.58018393E-04
22  8 5.90798076E-05 1.24036896E-04-4.26722108E-05 5.57239843E-05-8.86293112E-04
22  9-3.72476862E-04-1.50137752E-04 2.97211003E-04-3.28963270E-04 4.17830801E-04
22 10 2.68566671E-04-2.05308555E-03-5.42849876E-04-5.41607402E-04 3.66344299E-05
22 11-1.20293320E-03-2.35511984E-03-3.40267441E-03 5.77932635E-04 3.89847657E-03
22 12 2.55327302E-02 1.82381655E-02-1.28282463E-01-1.50047510E-01 1.93197273E-02
23  1 8.15633073E-03-1.35829569E-03 4.58573779E-03-3.03718614E-03 2.06087882E-03
23  2 1.89689525E-03-5.30820966E-04-1.34107236E-03-2.25933970E-03-2.69418281E-02
23  3-4.40638952E-03 2.41163700E-02 2.63347833E-03 3.99152928E-03-3.17913188E-03
23  4 6.90202683E-04-4.15057823E-02-2.55542375E-02 1.38064046E-01-4.89476233E-01
23  5-2.93377702E-01 6.65344701E-02 1.07032938E+00 2.89591142E-01-5.26782069E-02
23  6-1.45368017E-01 3.06170978E-02 3.61435708E-02 1.12411922E-02-4.09053206E-02
23  7-6.41599683E-04 3.24014595E-04-2.77137912E-04-1.06459636E-04-3.44342689E-05
23  8-1.05104716E-04-1.01258229E-04 1.30297528E-04-1.45127148E-05-3.05971260E-04
23  9 5.31319499E-05-4.24457169E-04 1.79506797E-04 3.00939856E-04-9.73258071E-05
23 10-1.96505403E-03-5.74521021E-03-1.65975856E-03-2.62352332E-04 1.04613381E-03
23 11-4.30604337E-04-2.21623943E-03-3.85542953E-03 1.97595945E-03-8.74533756E-03
23 12 1.05254740E-02 7.54083953E-03-1.54868819E-01-4.06911525E-01 7.96005023E-03
24  1 2.41480041E-03-9.40499257E-04 2.06831529E-03-1.53125206E-04-2.35211715E-04
24  2-9.42123020E-05 1.93648539E-03 1.02368981E-03 1.51548354E-03 1.40831176E-03
24  3-1.74377648E-04 6.00123248E-03 4.69910092E-03 7.33482561E-04-1.31237761E-03
24  4-1.02388704E-02-6.13632605E-03 4.11550866E-03 1.63427209E-01-2.73309227E-01
24  5-3.35687553E-01-3.16540289E-01 2.89591142E-01 5.78001064E-01 7.96909696E-02
24  6 3.27543343E-02-1.57844289E-01 4.66402336E-02-2.26620482E-02-3.19011237E-02
24  7-5.55509206E-04-2.04139042E-04-8.21078427E-05 2.85699152E-04-7.87736292E-04
24  8 5.78319727E-04-1.94212117E-04 1.10750303E-04 9.25696046E-05-2.39105028E-06
24  9 3.13622819E-04-4.56783695E-04 7.10922200E-05-1.23148504E-05 1.43180305E-04
24 10 8.43712388E-04-1.80874805E-03 1.12652050E-03 3.38481819E-04-3.49767473E-04
24 11 4.85297802E-04 1.66375446E-03 2.15841253E-03 1.28830339E-03 7.12883683E-03
24 12-2.62965724E-02-1.86302732E-03 1.71351979E-02 6.23175350E-03-6.61741978E-02
25  1 7.84069889E-03-1.50536209E-03 2.46056751E-03-3.53408610E-03 3.66497565E-03
25  2 6.85518434E-03-1.87189539E-02-1.06654463E-02-1.91235930E-02-1.21835711E-01
25  3-8.39677591E-02 3.05504009E-02 9.60325447E-03 3.16537011E-02-1.61447657E-03
25  4-1.07678819E-02 1.56903691E-03-1.37407761E-02-2.15635984E-03 2.34727249E-02
25  5 2.24759633E-02-1.95019077E-01-5.26782069E-02 7.96909696E-02 5.27684538E-01
25  6-8.54375837E-02-3.20795601E-01-1.83815376E-01 1.93348628E-01 1.96478333E-01
25  7-7.57827649E-04-9.46470885E-05-2.61254263E-04-7.89622824E-05-4.02507215E-04
25  8 2.34537482E-04-1.64365173E-04-2.82175153E-04 6.31827810E-04-1.94504689E-03
25  9-2.80744833E-03-3.54496190E-03-8.86665409E-05 4.56188788E-04-5.73019680E-05
25 10-4.57685372E-03-1.87335458E-02-4.39441657E-03-1.79787887E-03 4.64460856E-03
25 11 7.14015123E-03-8.39619343E-04-1.41716079E-03 1.95993418E-04 6.69628536E-03
25 12-5.02711023E-03 8.11353974E-03-5.72740769E-03 4.20817489E-03 8.70430031E-03
26  1-3.60768494E-03-1.00026417E-03-1.84988329E-04-6.38943507E-04-5.52668759E-04
26  2 3.14887849E-03-1.45773512E-02-1.53377715E-04-1.34004440E-02-5.73724774E-02
26  3-2.19925748E-01 1.78574208E-02 3.55236940E-03-3.72412740E-02-1.71961720E-02
26  4 7.49220304E-03 3.45873795E-03 1.12260546E-02 3.14290410E-02 1.79120878E-02
26  5-2.87159347E-02-4.71598218E-02-1.45368017E-01 3.27543343E-02-8.54375837E-02
26  6 9.28754056E-01 3.68657349E-01 1.97185243E-01-5.40790383E-01-3.90631602E-01
26  7 4.51649750E-04-8.21444865E-04 4.01987007E-04 1.62576845E-03 4.32476287E-04
26  8 1.49289611E-03-2.52918794E-04-3.49568905E-05-3.05890823E-04 2.34732016E-03
26  9 6.34580270E-04 3.04449694E-03 2.31072907E-04-5.81156211E-04 1.03210814E-03
26 10-1.58481892E-03-2.04826948E-03-5.32151417E-03-2.59557740E-03-4.10551061E-04
26 11-2.23113736E-03-1.20257608E-03-1.05437088E-03 7.16066554E-04-4.34429644E-03
26 12-4.85470745E-03-5.06456937E-03-2.55401078E-02 3.64500467E-03 2.27201630E-02
27  1 1.02889229E-02 6.24367316E-04-5.15134606E-04-5.96490816E-03 4.74059630E-03
27  2 8.54922416E-03-2.19857452E-02-1.61860317E-02-2.25705830E-02 4.87921016E-02
27  3-3.59621556E-03-1.01674238E-01-2.00668850E-02-3.70365506E-03 1.38852197E-02
27  4-8.03670871E-03 4.72559730E-03-1.49467056E-02 2.22410648E-02-2.14372085E-02
27  5-2.48330467E-02 8.11821359E-02 3.06170978E-02-1.57844289E-01-3.20795601E-01
27  6 3.68657349E-01 7.07673978E-01 1.96952007E-01-3.89793292E-01-4.25150835E-01
27  7-2.68492789E-04 5.98821833E-04-2.91348270E-04-1.59203269E-03-1.25762145E-04
27  8-1.85458854E-03 3.63412574E-04-3.17140239E-04 1.37864249E-04-2.77936370E-03
27  9-3.14870310E-03 1.22333173E-04-2.39694127E-04 2.01202465E-04 1.94576204E-05
27 10 8.30122462E-03 3.29563604E-02 4.43106639E-03 5.51739992E-03 1.92614492E-04
27 11 2.41123753E-03 1.14517039E-03 1.80417126E-03 4.32865879E-04 9.04849557E-03
27 12-2.79436432E-03 7.38485562E-03-2.10291853E-03-4.01555124E-03 4.63328409E-03
28  1-1.17559282E-03 6.75846935E-04-9.85886094E-04-3.64953089E-05-5.25421831E-04
28  2-3.61663697E-04-3.15482591E-04-4.75105437E-04-1.55686746E-03 2.46210144E-02
28  3-5.42413340E-03-4.73858618E-03-1.92746273E-03-5.02920550E-03 1.77972495E-04
28  4 2.16891995E-03-9.01994090E-04 2.19106834E-03-5.52740536E-03-1.02177269E-02
28  5 1.08707045E-03-8.64442078E-03 3.61435708E-02 4.66402336E-02-1.83815376E-01
28  6 1.97185243E-01 1.96952007E-01 1.72296698E-01-2.15710031E-01-2.33925693E-01
28  7 2.54664776E-04 1.26927427E-05 8.08969669E-05-1.49976753E-04 5.10464808E-05
28  8-2.46480355E-04 1.50682812E-04-1.40357477E-06-1.57280164E-04-1.00713334E-04
28  9-1.29674477E-04 7.26151828E-04 1.96567793E-04-2.26699000E-05 3.99000602E-04
28 10-4.18657041E-04 1.79211003E-03-8.57537816E-04 6.62575992E-04-7.07584915E-04
28 11-1.27285701E-03 3.20967723E-04 4.89088550E-04-1.45088032E-04-1.09288918E-03
28 12 2.49576822E-03-6.67893928E-04 2.53266838E-03 3.00544771E-04-3.33823947E-03
29  1 3.37482435E-03-3.93061853E-05 1.75601560E-03-1.80398075E-03 1.22443116E-03
29  2 1.36714313E-04 3.92058861E-03-2.57772450E-03 1.67657572E-03 1.30153049E-02
29  3-5.61394710E-02-4.59881682E-02-1.00767054E-02-1.59822784E-03 6.96175935E-03
29  4-3.89815176E-03-1.20623125E-03-4.84600760E-03-4.68442338E-03 4.48999439E-03
29  5 7.17014912E-03 1.48311091E-02 1.12411922E-02-2.26620482E-02 1.93348628E-01
29  6-5.40790383E-01-3.89793292E-01-2.15710031E-01 5.80171164E-01 4.46232980E-01
29  7-2.04685207E-04 3.18596373E-04-2.12893739E-04-4.96953855E-04-9.07533827E-05
29  8-6.43437935E-04 2.05341972E-04 2.32804854E-04 1.85956821E-04-1.91892281E-04
29  9 4.07972687E-05-3.77708233E-04-1.36046709E-05 2.47995568E-04-2.37564276E-04
29 10 2.16677314E-03 5.29986655E-03 4.35610818E-04 2.91847202E-03-1.26130463E-03
29 11-1.61033676E-04 7.31847233E-04 5.66379408E-04 3.37656084E-04 1.25173405E-03