!File created by the GAMESS Input Deck Generator Plugin for Avogadro
 $BASIS GBASIS=STO NGAUSS=3 $END
 $CONTRL SCFTYP=RHF RUNTYP=SADPOINT $END
 $STATPT hssend=.t. OPTTOL=0.0005 NSTEP=50 $END
 $STATPT HESS=calc ihrep=5 $END
 $FORCE nvib=2 $END
 $ZMAT DLC=.t. auto=.t. nonvdw(1)=1,6,3,4,4,5,5,6,1,2,2,3 $END
!$ZMAT IFZMAT(1)=1,1,6,1,3,4 fvalue(1)=2.00,2.00 $END

 $DATA 
Title
C1
C     6.0     2.05837893    -1.15109861    -1.89264679
C     6.0     0.83717746    -1.24036920    -1.21477592
C     6.0     0.53868157    -0.32076535    -0.20265362
C     6.0     1.94799733    -0.56214136     1.19576216
C     6.0     2.78953099    -1.56366682     0.69643486
C     6.0     3.47908688    -1.27760661    -0.49065369
C     6.0     4.04604912     0.11535010    -0.58420748
C     6.0     3.61566377     1.09441543     0.18560942
C     6.0     2.51017356     0.86619103     1.19064975
O     8.0     2.09167719     1.74306083     1.93478131
H     1.0     2.31033230    -1.94741714    -2.58528900
H     1.0     2.36641598    -0.17521589    -2.24751258
H     1.0     0.38442221    -2.22217059    -1.13840258
H     1.0     0.74374014     0.72450018    -0.40127397
H     1.0    -0.37351573    -0.46648908     0.36594164
H     1.0     1.35939586    -0.78711718     2.08047080
H     1.0     2.58864498    -2.59687138     0.95212239
H     1.0     4.11633110    -2.05125332    -0.90788913
H     1.0     4.83024549     0.27887353    -1.31536126
H     1.0     4.04013157     2.08893633     0.14498273
 $END
